▶▶▶ 14:29.55 Sun Apr 26 2020 ◀◀◀                                                                                                                                                                               
xellos@DARKSTARWS:~/workspace_git/mad-trab2 git:(master)➤ ./run_problem1.sh 
GLPSOL: GLPK LP/MIP Solver, v4.65
Parameter(s) specified in the command line:
 --math problem.mod --data solve.dat -o problem1.sol
Reading model section from problem.mod...
51 lines were read
Reading data section from solve.dat...
386 lines were read
Generating Total_Cost...
Generating total_dcs...
Generating deliver_to...
Generating active_dc...
Model has been successfully generated
GLPK Integer Optimizer, v4.65
144022 rows, 144020 columns, 574943 non-zeros
144020 integer variables, all of which are binary
Preprocessing...
144021 rows, 144020 columns, 431302 non-zeros
144020 integer variables, all of which are binary
Scaling...
 A: min|aij| =  1.000e+00  max|aij| =  1.000e+00  ratio =  1.000e+00
Problem data seem to be well scaled
Constructing initial basis...
Size of triangular part is 144021
Solving LP relaxation...
GLPK Simplex Optimizer, v4.65
144021 rows, 144020 columns, 431302 non-zeros
      0: obj =   5.485295656e+06 inf =   3.790e+02 (379)
      1: obj =   5.510295656e+06 inf =   0.000e+00 (0)
Perturbing LP to avoid stalling [200]...
*  1180: obj =   5.510295656e+06 inf =   0.000e+00 (78058)
*  2340: obj =   5.510295656e+06 inf =   0.000e+00 (75804)
*  3496: obj =   5.510295656e+06 inf =   0.000e+00 (73349)
*  4650: obj =   5.510295656e+06 inf =   0.000e+00 (71835)
*  5803: obj =   5.510295656e+06 inf =   0.000e+00 (70918)
*  6955: obj =   5.510295656e+06 inf =   0.000e+00 (67868)
*  8102: obj =   5.510295656e+06 inf =   0.000e+00 (66731)
*  9250: obj =   5.510295656e+06 inf =   0.000e+00 (66288)
* 10397: obj =   5.510295656e+06 inf =   0.000e+00 (64594)
* 11666: obj =   5.510295656e+06 inf =   0.000e+00 (62008)
* 13079: obj =   5.510295656e+06 inf =   0.000e+00 (60072) 1
* 14487: obj =   5.510295656e+06 inf =   0.000e+00 (57786)
* 15775: obj =   5.510295656e+06 inf =   0.000e+00 (55701)
* 16874: obj =   5.510295656e+06 inf =   0.000e+00 (54084)
* 17983: obj =   5.510295656e+06 inf =   0.000e+00 (52893)
* 19099: obj =   5.510295656e+06 inf =   0.000e+00 (52132)
* 20211: obj =   5.510295656e+06 inf =   0.000e+00 (49988)
* 21317: obj =   5.510295656e+06 inf =   0.000e+00 (48342)
* 22422: obj =   5.510295656e+06 inf =   0.000e+00 (47613)
* 23512: obj =   5.510295656e+06 inf =   0.000e+00 (46141) 1
* 24601: obj =   5.510295656e+06 inf =   0.000e+00 (44615)
* 25689: obj =   5.510295656e+06 inf =   0.000e+00 (43164)
* 26761: obj =   5.510295656e+06 inf =   0.000e+00 (43286)
* 27801: obj =   5.510295656e+06 inf =   0.000e+00 (38482) 3
* 28876: obj =   5.510295656e+06 inf =   0.000e+00 (38734)
* 29952: obj =   5.510295656e+06 inf =   0.000e+00 (38841) 1
* 31072: obj =   5.510295656e+06 inf =   0.000e+00 (39056)
* 32141: obj =   5.510295656e+06 inf =   0.000e+00 (37701)
* 33199: obj =   5.510295656e+06 inf =   0.000e+00 (36463) 1
* 34210: obj =   5.510295656e+06 inf =   0.000e+00 (27857) 1
* 35247: obj =   5.510295656e+06 inf =   0.000e+00 (27694) 1
* 36286: obj =   5.510295656e+06 inf =   0.000e+00 (27649) 1
* 37325: obj =   5.510295656e+06 inf =   0.000e+00 (27679) 2
* 38364: obj =   5.510295656e+06 inf =   0.000e+00 (28560)
* 39355: obj =   5.510295656e+06 inf =   0.000e+00 (29444) 1
* 40321: obj =   5.510295656e+06 inf =   0.000e+00 (29592) 1
* 41284: obj =   5.510295656e+06 inf =   0.000e+00 (27502) 2
* 42396: obj =   5.510295656e+06 inf =   0.000e+00 (27331) 1
* 43593: obj =   5.510295656e+06 inf =   0.000e+00 (27247) 2
* 44681: obj =   5.510295656e+06 inf =   0.000e+00 (27158) 1
* 45588: obj =   5.510295656e+06 inf =   0.000e+00 (27360)
* 46562: obj =   5.510295656e+06 inf =   0.000e+00 (26731) 1
* 47520: obj =   5.510295656e+06 inf =   0.000e+00 (26400) 1
* 48511: obj =   5.510295656e+06 inf =   0.000e+00 (25434) 1
* 49522: obj =   5.510295656e+06 inf =   0.000e+00 (25336) 1
* 50538: obj =   5.510295656e+06 inf =   0.000e+00 (23000) 1
* 51563: obj =   5.510295656e+06 inf =   0.000e+00 (22141) 1
* 52557: obj =   5.510295656e+06 inf =   0.000e+00 (21167)
* 53581: obj =   5.510295656e+06 inf =   0.000e+00 (20216) 1
* 54592: obj =   5.510295656e+06 inf =   0.000e+00 (19128) 1
* 55593: obj =   5.510295656e+06 inf =   0.000e+00 (18183) 1
* 56605: obj =   5.510295656e+06 inf =   0.000e+00 (17224) 1
* 57578: obj =   5.510295656e+06 inf =   0.000e+00 (16673) 1
* 58564: obj =   5.510295656e+06 inf =   0.000e+00 (15694) 1
* 59577: obj =   5.510295656e+06 inf =   0.000e+00 (14638) 1
* 60574: obj =   5.510295656e+06 inf =   0.000e+00 (14350)
* 61593: obj =   5.510295656e+06 inf =   0.000e+00 (13870) 1
* 62584: obj =   5.510295656e+06 inf =   0.000e+00 (13662) 1
* 63551: obj =   5.510295656e+06 inf =   0.000e+00 (13283) 1
* 64455: obj =   5.510295656e+06 inf =   0.000e+00 (12744)
* 65374: obj =   5.510295656e+06 inf =   0.000e+00 (11514) 1
* 66273: obj =   5.510295656e+06 inf =   0.000e+00 (11272) 1
* 67172: obj =   5.510295656e+06 inf =   0.000e+00 (10957) 1
* 68104: obj =   5.510295656e+06 inf =   0.000e+00 (10345)
* 69077: obj =   5.510295656e+06 inf =   0.000e+00 (9997) 1
* 70029: obj =   5.510295656e+06 inf =   0.000e+00 (9675) 1
* 70920: obj =   5.510295656e+06 inf =   0.000e+00 (8521) 1
* 71867: obj =   5.510295656e+06 inf =   0.000e+00 (7010) 1
* 72792: obj =   5.510295656e+06 inf =   0.000e+00 (1977) 2
* 73729: obj =   5.510295656e+06 inf =   0.000e+00 (1611) 1
* 74638: obj =   5.510295656e+06 inf =   0.000e+00 (1248) 2
* 75570: obj =   5.510295656e+06 inf =   0.000e+00 (1170) 1
* 76512: obj =   5.510295656e+06 inf =   0.000e+00 (1442) 1
* 77450: obj =   5.510295656e+06 inf =   0.000e+00 (1313) 2
* 78338: obj =   5.510295656e+06 inf =   0.000e+00 (1266)
* 79261: obj =   5.510295656e+06 inf =   0.000e+00 (1341) 2
* 80237: obj =   3.856574517e+06 inf =   0.000e+00 (1213) 1
* 81247: obj =   3.856574517e+06 inf =   0.000e+00 (1189)
* 82572: obj =   3.856574517e+06 inf =   0.000e+00 (2600) 1
* 83965: obj =   3.856574517e+06 inf =   0.000e+00 (9695)
* 85111: obj =   3.856574517e+06 inf =   0.000e+00 (10447)
* 86428: obj =   3.856574517e+06 inf =   0.000e+00 (12012) 1
* 87707: obj =   3.856574517e+06 inf =   0.000e+00 (13851)
* 88779: obj =   3.856574517e+06 inf =   0.000e+00 (14586)
* 89820: obj =   3.856574517e+06 inf =   0.000e+00 (15353)
* 90895: obj =   3.856574517e+06 inf =   0.000e+00 (16443)
* 91957: obj =   3.856574517e+06 inf =   0.000e+00 (16278)
* 93025: obj =   3.856574517e+06 inf =   0.000e+00 (16676)
* 94089: obj =   3.856574517e+06 inf =   0.000e+00 (15759)
* 95168: obj =   3.856574517e+06 inf =   0.000e+00 (14821)
* 96174: obj =   3.856574517e+06 inf =   0.000e+00 (13971)
* 97252: obj =   3.856574517e+06 inf =   0.000e+00 (13013)
* 98325: obj =   3.856574517e+06 inf =   0.000e+00 (12369)
* 99399: obj =   3.856574517e+06 inf =   0.000e+00 (11605)
*100478: obj =   3.856574517e+06 inf =   0.000e+00 (10818)
*101561: obj =   3.856574517e+06 inf =   0.000e+00 (10038)
*102645: obj =   3.856574517e+06 inf =   0.000e+00 (9298)
*103728: obj =   3.856574517e+06 inf =   0.000e+00 (8858)
*104812: obj =   3.856574517e+06 inf =   0.000e+00 (8235) 1
*105868: obj =   3.856574517e+06 inf =   0.000e+00 (7477)
*106862: obj =   3.856574517e+06 inf =   0.000e+00 (6592)
*107872: obj =   3.856574517e+06 inf =   0.000e+00 (5582)
*108868: obj =   3.856574517e+06 inf =   0.000e+00 (4603)
*109941: obj =   3.856574517e+06 inf =   0.000e+00 (3530)
*111020: obj =   3.856574517e+06 inf =   0.000e+00 (2528)
*112104: obj =   3.856574517e+06 inf =   0.000e+00 (1444)
*113166: obj =   3.856574517e+06 inf =   0.000e+00 (382)
Removing LP perturbation [113548]...
*113548: obj =   3.856574517e+06 inf =   0.000e+00 (0)
OPTIMAL LP SOLUTION FOUND
Integer optimization begins...
Long-step dual simplex will be used
+113548: mip =     not found yet >=              -inf        (1; 0)
+113548: >>>>>   3.856574517e+06 >=   3.856574517e+06   0.0% (1; 0)
+113548: mip =   3.856574517e+06 >=     tree is empty   0.0% (0; 1)
INTEGER OPTIMAL SOLUTION FOUND
Time used:   537.5 secs
Memory used: 395.5 Mb (414683880 bytes)


*********************************************************************
Town with MINIMUM cost (DC): Santarem (3831575€)
*********************************************************************
Town with LARGEST DELIVERY cost: Lisbon (167036€) [from Santarem]
*********************************************************************

Model has been successfully processed
Writing MIP solution to 'problem1.sol'...
▶▶▶ 14:39.03 Sun Apr 26 2020 ◀◀◀                  